40
    14    82    47    64    34    24    58    37    92    15    99    18    68    22     3    35    70    63    81    23    37    11    21    17    34    91    90    58    54    83    33    88    19    17    74    53    78    80    13     1
     1     3     8    10     9     7     8     8     2     4     5     5    10     3     5     8    10     3     7    10    10     4     4     2     5     5    10     5     8     1     5     4     1     1     2     4     6     2     7     8
   512   426   483  1102   835  1669  1676   870   657   766  1767  1700  1635   420  1302  1545   990  1611  1546  1456   478  1646  1676  1729   935   573  1300  1865   611   751   695  1276  1866  1105  1798   765   391  1258   856  1706
